(set-info :Origin "This instance was generated by: BanditFuzz-- an RL fuzzer for SMT solvers" )
(set-info :Author "Joe Scott, Fed Mora, Vijay Ganesh" )
(set-info :Contact "Joe Scott, joseph.scott@uwaterloo.ca")
(set-logic QF_BV)
(declare-const bool_0 Bool)
(declare-const bool_1 Bool)
(declare-const bool_2 Bool)
(declare-const bool_3 Bool)
(declare-const bool_4 Bool)
(declare-const bv_0 (_ BitVec 32))
(declare-const bv_1 (_ BitVec 32))
(declare-const bv_2 (_ BitVec 32))
(declare-const bv_3 (_ BitVec 32))
(declare-const bv_4 (_ BitVec 32))
(assert (bvule (bvlshr (bvsub bv_3 bv_2) (bvmul #x4c9c7219  #x23d2c42e )) (bvsmod (bvand bv_0 #x86f0c29c ) (bvsmod #x192dae1f  bv_3))))
(assert (bvult (bvor (bvashr #x0854ba21  bv_3) (bvlshr bv_4 bv_3)) (bvsrem (bvxor #x16da36d2  #xc7920367 ) (bvnand #xdf55346a  #xfb0aa28e ))))
(assert (bvult (bvnor (bvadd bv_4 bv_4) (bvsdiv bv_3 #x674c5d4b )) (bvand (bvmul #xebe2ba39  #x2f029c96 ) (bvand #xd1313809  #xe77b2677 ))))
(assert (xor (bvsle (bvxor #x0dc9be35  #x8db88924 ) (bvor #x2ee61314  bv_3)) (bvule (bvsmod #x308243e6  bv_2) (bvlshr bv_2 #xa35c32a2 ))))
(assert (bvule (bvmul (bvand #x4c31c410  bv_3) (bvand #x2a7b36e0  #xf80f795b )) (bvand (bvadd bv_0 #x073a2eef ) (bvudiv bv_0 bv_3))))
(check-sat)
(exit)
